c ****************************************************************
c **     This is a Sat-2003 Competition *SHUFFLED* instance     **
c ****************************************************************
c N.B. This header has been added to the file after the competition
c Please do contact L. Simon for more informations (simon@lri.fr)
c 
c Bench submitted by: Rachel Bevan (McGill University, Montreal, CA)
c              email: rachel@mcb.mcgill.ca
c 
c The original name of this formula was: 
c    handmade/bevan/cnf/marg2x6.cnf
c Category : HandMade
c The name used during the competition was: 
c     handmade/set103/sat03-1444.cnf
c The random seed used to shuffle this instance  was: 670809676
c 
c CPU time of solvers on this bench during the first stage 
c  (including Hors-Concours solvers):
c   +------------+--------+--------+
c   | Solver     | Time   | Answer |
c   +------------+--------+--------+
c   | marchsp    |   0.00 |  UNSAT |
c   | marchtt    |   0.00 |  UNSAT |
c   | lsat       |   0.01 |  UNSAT |
c   | forklift   |   0.07 |  UNSAT |
c   | berkmin561 |   0.10 |  UNSAT |
c   | siege      |   0.20 |  UNSAT |
c   | funex      |   0.38 |  UNSAT |
c   | berkmin62  |   0.67 |  UNSAT |
c   | tts        |   0.69 |  UNSAT |
c   | satzilla   |   0.88 |  UNSAT |
c   | satnik     |   1.29 |  UNSAT |
c   | jerusat1b  |   1.81 |  UNSAT |
c   | sato       |   1.81 |  UNSAT |
c   | satzoo0    |   2.14 |  UNSAT |
c   | bmsat      |   2.27 |  UNSAT |
c   | kcnfs      |   2.53 |  UNSAT |
c   | jerusat1a  |   2.89 |  UNSAT |
c   | xqingting  |   3.51 |  UNSAT |
c   | zchaff     |   5.20 |  UNSAT |
c   | satzoo1    |   6.81 |  UNSAT |
c   | jquest2    |   9.07 |  UNSAT |
c   | oepir      |  13.72 |  UNSAT |
c   | satzilla2  |  31.20 |  UNSAT |
c   | jerusat1c  |  43.98 |  UNSAT |
c   | limmat     | 474.79 |  UNSAT |
c   | amvo       | 900.00 |   --   |
c   | compsat    | 900.00 |   --   |
c   | farseer    | 900.00 |   --   |
c   | marchxq    | 900.00 |   --   |
c   | opensat    | 900.00 |   --   |
c   | qingting   | 900.00 |   --   |
c   | saturn     | 900.00 |   --   |
c   | unitwalk   | 900.00 |   --   |
c   +------------+--------+--------+
c
c Old header begins here:
c The random seed used to shuffle this instance was seed=670809676
p cnf 42 144
-34 21 -11 0
32 -22 42 39 0
-26 21 8 -30 0
15 -2 -42 14 0
4 -41 -8 -15 0
1 -13 -31 0
-21 11 -34 0
38 10 -16 0
-14 -7 3 -17 0
-40 -27 9 -23 0
-30 36 -24 -9 0
36 10 33 0
6 22 18 0
-30 -36 24 -9 0
19 -12 11 0
-21 8 -30 26 0
14 -2 42 -15 0
-41 15 4 8 0
25 34 -38 0
-8 -30 -21 -26 0
-7 -37 1 0
-19 -27 -35 -5 0
3 -13 35 -39 0
-15 -4 -41 8 0
-7 -1 37 0
-2 -33 -28 0
-22 32 -39 -42 0
32 -42 22 39 0
13 -35 -3 39 0
-5 29 32 -20 0
13 -39 -3 35 0
-3 39 35 -13 0
29 20 32 5 0
-4 15 -41 -8 0
-26 -25 -29 23 0
-39 -13 -3 -35 0
4 16 24 -17 0
14 -7 3 17 0
2 14 42 15 0
5 -19 35 -27 0
3 39 35 13 0
41 4 -15 8 0
1 37 7 0
-27 -9 40 -23 0
-42 14 -15 2 0
2 -42 15 -14 0
30 -21 8 -26 0
-18 6 -22 0
30 36 -24 9 0
28 -41 31 0
16 10 -38 0
-23 9 40 27 0
-23 -26 -25 29 0
15 41 8 -4 0
-17 7 14 3 0
-20 -5 -32 -29 0
-14 15 -2 42 0
24 -30 9 36 0
13 -1 -31 0
21 30 26 8 0
-3 17 14 7 0
-32 -29 5 20 0
-9 23 -27 -40 0
32 -29 -5 20 0
19 -35 -27 5 0
5 27 19 35 0
-28 2 33 0
-20 5 29 -32 0
-8 21 26 -30 0
-11 34 -21 0
-17 24 -16 -4 0
-24 -36 9 -30 0
39 -42 -22 -32 0
-40 -23 27 -9 0
29 -25 26 23 0
9 -40 23 27 0
-20 -6 -37 0
1 13 31 0
-24 -9 30 -36 0
-4 16 -24 -17 0
40 -9 27 23 0
-21 -8 26 30 0
6 20 -37 0
-11 -12 -19 0
-10 16 38 0
12 -40 -18 0
-41 -31 -28 0
34 11 21 0
-35 -13 39 3 0
25 23 -29 26 0
2 28 -33 0
-4 17 16 24 0
-35 -39 3 13 0
39 22 -32 42 0
20 -6 37 0
28 -2 33 0
-14 2 42 -15 0
4 24 -16 17 0
33 -36 -10 0
12 -19 11 0
-5 20 29 -32 0
24 9 30 -36 0
41 -8 -15 -4 0
14 -17 -3 -7 0
42 32 22 -39 0
7 -1 -37 0
4 -24 -17 -16 0
27 -19 35 -5 0
-38 -16 -10 0
12 40 18 0
-22 -39 -32 42 0
-20 37 6 0
22 -6 -18 0
-26 23 25 29 0
17 7 3 -14 0
30 36 24 -9 0
5 -20 -29 32 0
22 -39 -32 -42 0
16 17 -24 4 0
15 -8 41 4 0
-17 -3 7 -14 0
41 28 -31 0
-7 17 -14 -3 0
-11 19 12 0
-23 29 26 25 0
18 -12 -40 0
-23 -29 26 -25 0
40 9 -27 23 0
31 -28 41 0
-35 5 -19 27 0
-38 -25 -34 0
-8 30 -26 21 0
-1 -13 31 0
-36 -33 10 0
38 34 -25 0
-23 -26 25 -29 0
-22 18 -6 0
-14 -15 -2 -42 0
19 -35 -5 27 0
-27 -5 35 19 0
-33 -10 36 0
38 -34 25 0
-4 -16 17 -24 0
-18 -12 40 0
